
Gurobi 13.0.1 (linux64) logging started Thu Mar 26 14:08:56 2026

Set parameter LogFile to value "logs_sparse/75B_3F_robust_gamma_1_theta_0d05199999999999999_2026-03-26_14h08m41s.log"
Set parameter MIPGap to value 0.005
Set parameter OptimalityTol to value 0.005
Gurobi Optimizer version 13.0.1 build v13.0.1rc0 (linux64 - "Linux Mint 22")

CPU model: 12th Gen Intel(R) Core(TM) i7-12700, instruction set [SSE2|AVX|AVX2]
Thread count: 20 physical cores, 20 logical processors, using up to 20 threads

Non-default parameters:
TimeLimit  3600
SoftMemLimit  12
MIPGap  0.005
OptimalityTol  0.005

Optimize a model with 45596 rows, 867096 columns and 2644377 nonzeros (Max)
Model fingerprint: 0x003806d8
Model has 832586 linear objective coefficients
Variable types: 12096 continuous, 855000 integer (855000 binary)
Coefficient statistics:
  Matrix range     [3e-05, 1e+05]
  Objective range  [1e+00, 3e+03]
  Bounds range     [1e+00, 1e+05]
  RHS range        [1e-02, 1e+05]

Presolve removed 23361 rows and 626499 columns
Presolve time: 1.53s
Presolved: 22235 rows, 240597 columns, 754072 nonzeros
Variable types: 5898 continuous, 234699 integer (234699 binary)
Found heuristic solution: objective -4.12338e+08
Deterministic concurrent LP optimizer: primal simplex, dual simplex, and barrier
Showing barrier log only...

Root barrier log...

Ordering time: 0.48s

Barrier statistics:
 AA' NZ     : 3.860e+05
 Factor NZ  : 3.362e+06 (roughly 130 MB of memory)
 Factor Ops : 9.985e+08 (less than 1 second per iteration)
 Threads    : 18

                  Objective                Residual
Iter       Primal          Dual         Primal    Dual     Compl     Time
   0  -8.72393993e+11  1.19651777e+09  2.53e+07 1.02e+03  1.06e+07     3s
   1  -8.94957465e+10  2.94508437e+09  2.60e+06 4.85e-11  1.11e+06     3s
   2  -4.09931651e+09  1.84036825e+09  1.19e+05 8.32e-11  5.39e+04     3s
   3  -4.20101379e+08  1.56164198e+09  1.73e+04 7.03e-11  9.89e+03     3s
   4  -7.84497633e+07  7.42545198e+08  8.01e+03 6.62e-11  3.86e+03     3s
   5   1.84661461e+08  3.81134509e+08  1.07e+03 5.17e-11  6.29e+02     3s
   6   2.22630391e+08  2.30777133e+08  1.26e+00 5.12e-11  1.68e+01     3s
   7   2.22701018e+08  2.24842537e+08  7.62e-10 2.34e-09  4.35e+00     3s
   8   2.22749758e+08  2.23986261e+08  1.84e-10 1.81e-09  2.51e+00     3s
   9   2.22782185e+08  2.23617899e+08  6.40e-10 2.00e-09  1.70e+00     4s
  10   2.22816775e+08  2.23224810e+08  1.05e-09 2.20e-09  8.29e-01     4s
  11   2.22837165e+08  2.22990912e+08  4.66e-10 1.56e-09  3.12e-01     4s
  12   2.22839554e+08  2.22914708e+08  2.33e-10 1.70e-09  1.53e-01     4s
  13   2.22843317e+08  2.22887609e+08  9.90e-10 2.12e-09  8.99e-02     4s
  14   2.22844662e+08  2.22876505e+08  4.66e-10 1.59e-09  6.47e-02     4s
  15   2.22845668e+08  2.22865944e+08  4.66e-10 1.97e-09  4.12e-02     4s
  16   2.22845876e+08  2.22864793e+08  4.07e-10 2.38e-09  3.84e-02     4s
  17   2.22846193e+08  2.22856351e+08  1.09e-09 1.94e-09  2.06e-02     4s
  18   2.22846457e+08  2.22852691e+08  6.18e-10 2.10e-09  1.27e-02     4s
  19   2.22846778e+08  2.22850839e+08  1.34e-09 1.81e-09  8.25e-03     4s
  20   2.22846845e+08  2.22849333e+08  2.50e-09 1.78e-09  5.05e-03     4s
  21   2.22846913e+08  2.22848447e+08  1.05e-09 1.75e-09  3.12e-03     4s
  22   2.22846939e+08  2.22847720e+08  1.69e-09 1.73e-09  1.59e-03     4s
  23   2.22846958e+08  2.22847503e+08  1.75e-10 1.93e-09  1.11e-03     4s
  24   2.22846964e+08  2.22847295e+08  2.89e-10 1.65e-09  6.73e-04     4s
  25   2.22846972e+08  2.22847145e+08  1.11e-09 1.65e-09  3.50e-04     5s
  26   2.22846982e+08  2.22847046e+08  2.91e-09 1.51e-09  1.29e-04     5s
  27   2.22846983e+08  2.22847021e+08  8.15e-10 1.65e-09  7.68e-05     5s
  28   2.22846986e+08  2.22846990e+08  3.20e-09 1.58e-09  6.95e-06     5s
  29   2.22846986e+08  2.22846987e+08  2.62e-09 1.54e-09  1.14e-06     5s
  30   2.22846986e+08  2.22846986e+08  2.83e-09 1.29e-09  1.26e-08     5s
  31   2.22846986e+08  2.22846986e+08  6.29e-09 9.28e-10  1.98e-12     5s

Barrier solved model in 31 iterations and 4.84 seconds (6.31 work units)
Optimal objective 2.22846986e+08


Root crossover log...

       0 PPushes remaining with PInf 0.0000000e+00                 5s

  Push phase complete: Pinf 0.0000000e+00, Dinf 6.4365208e+04      5s


Root simplex log...

Iteration    Objective       Primal Inf.    Dual Inf.      Time
   10144    2.2284699e+08   0.000000e+00   6.436503e+04      5s
   11339    2.2284699e+08   0.000000e+00   0.000000e+00      6s
Crossover time: 0.81 seconds (0.79 work units)
Concurrent spin time: 0.00s

Solved with barrier

Root relaxation: objective 2.228470e+08, 11339 iterations, 3.49 seconds (3.68 work units)

    Nodes    |    Current Node    |     Objective Bounds      |     Work
 Expl Unexpl |  Obj  Depth IntInf | Incumbent    BestBd   Gap | It/Node Time

     0     0 2.2285e+08    0 4673 -4.123e+08 2.2285e+08   154%     -    6s
H    0     0                    -2.06790e+08 2.2285e+08   208%     -    7s
H    0     0                    1224429.2735 2.2285e+08      -     -    8s
H    0     0                    3813997.2296 2.2285e+08  5743%     -   10s
H    0     0                    1.115458e+08 2.2285e+08   100%     -   13s
H    0     0                    1.591418e+08 2.2285e+08  40.0%     -   14s
H    0     0                    1.733934e+08 2.2285e+08  28.5%     -   15s
     0     0 2.2285e+08    0 4351 1.7339e+08 2.2285e+08  28.5%     -   42s
H    0     0                    1.733945e+08 2.2285e+08  28.5%     -   75s
     0     0 2.2285e+08    0 4728 1.7339e+08 2.2285e+08  28.5%     -  396s
H    0     0                    1.796270e+08 2.2285e+08  24.1%     -  397s
H    0     0                    1.822689e+08 2.2285e+08  22.3%     -  397s
H    0     0                    2.227694e+08 2.2285e+08  0.03%     -  443s

Cutting planes:
  RLT: 2926

Explored 1 nodes (372535 simplex iterations) in 443.63 seconds (877.02 work units)
Thread count was 20 (of 20 available processors)

Solution count 10: 2.22769e+08 1.82269e+08 1.79627e+08 ... -2.0679e+08

Optimal solution found (tolerance 5.00e-03)
Best objective 2.227694141689e+08, best bound 2.228465339014e+08, gap 0.0346%
